p cnf 400 1400
c weights 1.0 1.0 2.718281828459045 0.36787944117144233 2.718281828459045 0.36787944117144233 2.718281828459045 0.36787944117144233 2.718281828459045 0.36787944117144233 2.718281828459045 0.36787944117144233 2.718281828459045 0.36787944117144233 2.718281828459045 0.36787944117144233 2.718281828459045 0.36787944117144233 2.718281828459045 0.36787944117144233 2.718281828459045 0.36787944117144233 2.718281828459045 0.36787944117144233 2.718281828459045 0.36787944117144233 2.718281828459045 0.36787944117144233 2.718281828459045 0.36787944117144233 2.718281828459045 0.36787944117144233 2.718281828459045 0.36787944117144233 2.718281828459045 0.36787944117144233 2.718281828459045 0.36787944117144233 1.0 1.0 2.718281828459045 0.36787944117144233 2.718281828459045 0.36787944117144233 2.718281828459045 0.36787944117144233 2.718281828459045 0.36787944117144233 2.718281828459045 0.36787944117144233 2.718281828459045 0.36787944117144233 2.718281828459045 0.36787944117144233 2.718281828459045 0.36787944117144233 2.718281828459045 0.36787944117144233 2.718281828459045 0.36787944117144233 1.0 1.0 2.718281828459045 0.36787944117144233 2.718281828459045 0.36787944117144233 2.718281828459045 0.36787944117144233 2.718281828459045 0.36787944117144233 2.718281828459045 0.36787944117144233 2.718281828459045 0.36787944117144233 2.718281828459045 0.36787944117144233 2.718281828459045 0.36787944117144233 2.718281828459045 0.36787944117144233 2.718281828459045 0.36787944117144233 2.718281828459045 0.36787944117144233 2.718281828459045 0.36787944117144233 2.718281828459045 0.36787944117144233 2.718281828459045 0.36787944117144233 1.0 1.0 2.718281828459045 0.36787944117144233 2.718281828459045 0.36787944117144233 2.718281828459045 0.36787944117144233 2.718281828459045 0.36787944117144233 2.718281828459045 0.36787944117144233 2.718281828459045 0.36787944117144233 2.718281828459045 0.36787944117144233 2.718281828459045 0.36787944117144233 2.718281828459045 0.36787944117144233 2.718281828459045 0.36787944117144233 2.718281828459045 0.36787944117144233 2.718281828459045 0.36787944117144233 2.718281828459045 0.36787944117144233 1.0 1.0 2.718281828459045 0.36787944117144233 2.718281828459045 0.36787944117144233 2.718281828459045 0.36787944117144233 2.718281828459045 0.36787944117144233 2.718281828459045 0.36787944117144233 2.718281828459045 0.36787944117144233 2.718281828459045 0.36787944117144233 2.718281828459045 0.36787944117144233 2.718281828459045 0.36787944117144233 2.718281828459045 0.36787944117144233 2.718281828459045 0.36787944117144233 2.718281828459045 0.36787944117144233 2.718281828459045 0.36787944117144233 2.718281828459045 0.36787944117144233 1.0 1.0 2.718281828459045 0.36787944117144233 2.718281828459045 0.36787944117144233 2.718281828459045 0.36787944117144233 2.718281828459045 0.36787944117144233 2.718281828459045 0.36787944117144233 2.718281828459045 0.36787944117144233 2.718281828459045 0.36787944117144233 2.718281828459045 0.36787944117144233 2.718281828459045 0.36787944117144233 2.718281828459045 0.36787944117144233 2.718281828459045 0.36787944117144233 2.718281828459045 0.36787944117144233 1.0 1.0 2.718281828459045 0.36787944117144233 2.718281828459045 0.36787944117144233 2.718281828459045 0.36787944117144233 2.718281828459045 0.36787944117144233 1.0 1.0 2.718281828459045 0.36787944117144233 2.718281828459045 0.36787944117144233 2.718281828459045 0.36787944117144233 2.718281828459045 0.36787944117144233 2.718281828459045 0.36787944117144233 2.718281828459045 0.36787944117144233 2.718281828459045 0.36787944117144233 2.718281828459045 0.36787944117144233 2.718281828459045 0.36787944117144233 2.718281828459045 0.36787944117144233 2.718281828459045 0.36787944117144233 2.718281828459045 0.36787944117144233 2.718281828459045 0.36787944117144233 2.718281828459045 0.36787944117144233 2.718281828459045 0.36787944117144233 2.718281828459045 0.36787944117144233 1.0 1.0 2.718281828459045 0.36787944117144233 2.718281828459045 0.36787944117144233 2.718281828459045 0.36787944117144233 2.718281828459045 0.36787944117144233 2.718281828459045 0.36787944117144233 2.718281828459045 0.36787944117144233 2.718281828459045 0.36787944117144233 2.718281828459045 0.36787944117144233 2.718281828459045 0.36787944117144233 2.718281828459045 0.36787944117144233 2.718281828459045 0.36787944117144233 2.718281828459045 0.36787944117144233 2.718281828459045 0.36787944117144233 2.718281828459045 0.36787944117144233 2.718281828459045 0.36787944117144233 2.718281828459045 0.36787944117144233 2.718281828459045 0.36787944117144233 1.0 1.0 2.718281828459045 0.36787944117144233 2.718281828459045 0.36787944117144233 2.718281828459045 0.36787944117144233 2.718281828459045 0.36787944117144233 2.718281828459045 0.36787944117144233 2.718281828459045 0.36787944117144233 2.718281828459045 0.36787944117144233 2.718281828459045 0.36787944117144233 2.718281828459045 0.36787944117144233 2.718281828459045 0.36787944117144233 2.718281828459045 0.36787944117144233 1.0 1.0 2.718281828459045 0.36787944117144233 2.718281828459045 0.36787944117144233 2.718281828459045 0.36787944117144233 2.718281828459045 0.36787944117144233 2.718281828459045 0.36787944117144233 2.718281828459045 0.36787944117144233 2.718281828459045 0.36787944117144233 2.718281828459045 0.36787944117144233 1.0 1.0 2.718281828459045 0.36787944117144233 2.718281828459045 0.36787944117144233 2.718281828459045 0.36787944117144233 2.718281828459045 0.36787944117144233 2.718281828459045 0.36787944117144233 2.718281828459045 0.36787944117144233 2.718281828459045 0.36787944117144233 2.718281828459045 0.36787944117144233 2.718281828459045 0.36787944117144233 2.718281828459045 0.36787944117144233 2.718281828459045 0.36787944117144233 2.718281828459045 0.36787944117144233 1.0 1.0 2.718281828459045 0.36787944117144233 2.718281828459045 0.36787944117144233 2.718281828459045 0.36787944117144233 2.718281828459045 0.36787944117144233 2.718281828459045 0.36787944117144233 2.718281828459045 0.36787944117144233 2.718281828459045 0.36787944117144233 2.718281828459045 0.36787944117144233 2.718281828459045 0.36787944117144233 2.718281828459045 0.36787944117144233 2.718281828459045 0.36787944117144233 2.718281828459045 0.36787944117144233 2.718281828459045 0.36787944117144233 1.0 1.0 2.718281828459045 0.36787944117144233 2.718281828459045 0.36787944117144233 2.718281828459045 0.36787944117144233 2.718281828459045 0.36787944117144233 2.718281828459045 0.36787944117144233 1.0 1.0 2.718281828459045 0.36787944117144233 2.718281828459045 0.36787944117144233 2.718281828459045 0.36787944117144233 2.718281828459045 0.36787944117144233 2.718281828459045 0.36787944117144233 2.718281828459045 0.36787944117144233 2.718281828459045 0.36787944117144233 2.718281828459045 0.36787944117144233 2.718281828459045 0.36787944117144233 2.718281828459045 0.36787944117144233 2.718281828459045 0.36787944117144233 2.718281828459045 0.36787944117144233 2.718281828459045 0.36787944117144233 1.0 1.0 2.718281828459045 0.36787944117144233 2.718281828459045 0.36787944117144233 2.718281828459045 0.36787944117144233 2.718281828459045 0.36787944117144233 2.718281828459045 0.36787944117144233 2.718281828459045 0.36787944117144233 2.718281828459045 0.36787944117144233 1.0 1.0 2.718281828459045 0.36787944117144233 2.718281828459045 0.36787944117144233 2.718281828459045 0.36787944117144233 2.718281828459045 0.36787944117144233 2.718281828459045 0.36787944117144233 2.718281828459045 0.36787944117144233 2.718281828459045 0.36787944117144233 2.718281828459045 0.36787944117144233 1.0 1.0 2.718281828459045 0.36787944117144233 2.718281828459045 0.36787944117144233 2.718281828459045 0.36787944117144233 2.718281828459045 0.36787944117144233 2.718281828459045 0.36787944117144233 2.718281828459045 0.36787944117144233 2.718281828459045 0.36787944117144233 2.718281828459045 0.36787944117144233 2.718281828459045 0.36787944117144233 2.718281828459045 0.36787944117144233 2.718281828459045 0.36787944117144233 1.0 1.0 2.718281828459045 0.36787944117144233 2.718281828459045 0.36787944117144233 2.718281828459045 0.36787944117144233 2.718281828459045 0.36787944117144233 2.718281828459045 0.36787944117144233 2.718281828459045 0.36787944117144233 2.718281828459045 0.36787944117144233 2.718281828459045 0.36787944117144233 2.718281828459045 0.36787944117144233 2.718281828459045 0.36787944117144233 2.718281828459045 0.36787944117144233 2.718281828459045 0.36787944117144233 1.0 1.0 2.718281828459045 0.36787944117144233 2.718281828459045 0.36787944117144233 2.718281828459045 0.36787944117144233 2.718281828459045 0.36787944117144233 2.718281828459045 0.36787944117144233 2.718281828459045 0.36787944117144233 2.718281828459045 0.36787944117144233 2.718281828459045 0.36787944117144233 2.718281828459045 0.36787944117144233 2.718281828459045 0.36787944117144233 2.718281828459045 0.36787944117144233 1.0 1.0 2.718281828459045 0.36787944117144233 2.718281828459045 0.36787944117144233 2.718281828459045 0.36787944117144233 2.718281828459045 0.36787944117144233 2.718281828459045 0.36787944117144233 2.718281828459045 0.36787944117144233 2.718281828459045 0.36787944117144233 1.0 1.0 2.718281828459045 0.36787944117144233 2.718281828459045 0.36787944117144233 2.718281828459045 0.36787944117144233 2.718281828459045 0.36787944117144233 2.718281828459045 0.36787944117144233 2.718281828459045 0.36787944117144233 1.0 1.0 2.718281828459045 0.36787944117144233 2.718281828459045 0.36787944117144233 2.718281828459045 0.36787944117144233 2.718281828459045 0.36787944117144233 2.718281828459045 0.36787944117144233 2.718281828459045 0.36787944117144233 1.0 1.0 2.718281828459045 0.36787944117144233 2.718281828459045 0.36787944117144233 2.718281828459045 0.36787944117144233 2.718281828459045 0.36787944117144233 2.718281828459045 0.36787944117144233 1.0 1.0 2.718281828459045 0.36787944117144233 2.718281828459045 0.36787944117144233 2.718281828459045 0.36787944117144233 2.718281828459045 0.36787944117144233 2.718281828459045 0.36787944117144233 2.718281828459045 0.36787944117144233 2.718281828459045 0.36787944117144233 1.0 1.0 2.718281828459045 0.36787944117144233 2.718281828459045 0.36787944117144233 2.718281828459045 0.36787944117144233 2.718281828459045 0.36787944117144233 1.0 1.0 2.718281828459045 0.36787944117144233 2.718281828459045 0.36787944117144233 2.718281828459045 0.36787944117144233 2.718281828459045 0.36787944117144233 2.718281828459045 0.36787944117144233 2.718281828459045 0.36787944117144233 2.718281828459045 0.36787944117144233 2.718281828459045 0.36787944117144233 2.718281828459045 0.36787944117144233 1.0 1.0 2.718281828459045 0.36787944117144233 2.718281828459045 0.36787944117144233 2.718281828459045 0.36787944117144233 2.718281828459045 0.36787944117144233 2.718281828459045 0.36787944117144233 2.718281828459045 0.36787944117144233 1.0 1.0 2.718281828459045 0.36787944117144233 2.718281828459045 0.36787944117144233 2.718281828459045 0.36787944117144233 2.718281828459045 0.36787944117144233 1.0 1.0 2.718281828459045 0.36787944117144233 2.718281828459045 0.36787944117144233 2.718281828459045 0.36787944117144233 1.0 1.0 2.718281828459045 0.36787944117144233 2.718281828459045 0.36787944117144233 2.718281828459045 0.36787944117144233 2.718281828459045 0.36787944117144233 2.718281828459045 0.36787944117144233 2.718281828459045 0.36787944117144233 2.718281828459045 0.36787944117144233 2.718281828459045 0.36787944117144233 1.0 1.0 2.718281828459045 0.36787944117144233 2.718281828459045 0.36787944117144233 2.718281828459045 0.36787944117144233 2.718281828459045 0.36787944117144233 2.718281828459045 0.36787944117144233 2.718281828459045 0.36787944117144233 2.718281828459045 0.36787944117144233 2.718281828459045 0.36787944117144233 2.718281828459045 0.36787944117144233 2.718281828459045 0.36787944117144233 2.718281828459045 0.36787944117144233 2.718281828459045 0.36787944117144233 1.0 1.0 2.718281828459045 0.36787944117144233 2.718281828459045 0.36787944117144233 2.718281828459045 0.36787944117144233 2.718281828459045 0.36787944117144233 2.718281828459045 0.36787944117144233 2.718281828459045 0.36787944117144233 1.0 1.0 2.718281828459045 0.36787944117144233 2.718281828459045 0.36787944117144233 2.718281828459045 0.36787944117144233 2.718281828459045 0.36787944117144233 1.0 1.0 2.718281828459045 0.36787944117144233 2.718281828459045 0.36787944117144233 2.718281828459045 0.36787944117144233 2.718281828459045 0.36787944117144233 2.718281828459045 0.36787944117144233 2.718281828459045 0.36787944117144233 1.0 1.0 2.718281828459045 0.36787944117144233 2.718281828459045 0.36787944117144233 2.718281828459045 0.36787944117144233 1.0 1.0 2.718281828459045 0.36787944117144233 2.718281828459045 0.36787944117144233 1.0 1.0 2.718281828459045 0.36787944117144233 2.718281828459045 0.36787944117144233 2.718281828459045 0.36787944117144233 2.718281828459045 0.36787944117144233 1.0 1.0 2.718281828459045 0.36787944117144233 2.718281828459045 0.36787944117144233 2.718281828459045 0.36787944117144233 1.0 1.0 2.718281828459045 0.36787944117144233 2.718281828459045 0.36787944117144233 2.718281828459045 0.36787944117144233 1.0 1.0 2.718281828459045 0.36787944117144233 2.718281828459045 0.36787944117144233 1.0 1.0 2.718281828459045 0.36787944117144233 1.0 1.0 2.718281828459045 0.36787944117144233 2.718281828459045 0.36787944117144233 1.0 1.0 2.718281828459045 0.36787944117144233 1.0 1.0 2.718281828459045 0.36787944117144233 2.718281828459045 0.36787944117144233 1.0 1.0 2.718281828459045 0.36787944117144233 2.718281828459045 0.36787944117144233 1.0 1.0 2.718281828459045 0.36787944117144233 1.0 1.0 2.718281828459045 0.36787944117144233 1.0 1.0 2.718281828459045 0.36787944117144233 1.0 1.0
2 1 20 0
2 -1 -20 0
-2 1 -20 0
-2 -1 20 0
3 1 46 0
3 -1 -46 0
-3 1 -46 0
-3 -1 46 0
4 1 93 0
4 -1 -93 0
-4 1 -93 0
-4 -1 93 0
5 1 140 0
5 -1 -140 0
-5 1 -140 0
-5 -1 140 0
6 1 204 0
6 -1 -204 0
-6 1 -204 0
-6 -1 204 0
7 1 238 0
7 -1 -238 0
-7 1 -238 0
-7 -1 238 0
8 1 250 0
8 -1 -250 0
-8 1 -250 0
-8 -1 250 0
9 1 265 0
9 -1 -265 0
-9 1 -265 0
-9 -1 265 0
10 1 272 0
10 -1 -272 0
-10 1 -272 0
-10 -1 272 0
11 1 291 0
11 -1 -291 0
-11 1 -291 0
-11 -1 291 0
12 1 326 0
12 -1 -326 0
-12 1 -326 0
-12 -1 326 0
13 1 339 0
13 -1 -339 0
-13 1 -339 0
-13 -1 339 0
14 1 358 0
14 -1 -358 0
-14 1 -358 0
-14 -1 358 0
15 1 374 0
15 -1 -374 0
-15 1 -374 0
-15 -1 374 0
16 1 378 0
16 -1 -378 0
-16 1 -378 0
-16 -1 378 0
17 1 391 0
17 -1 -391 0
-17 1 -391 0
-17 -1 391 0
18 1 394 0
18 -1 -394 0
-18 1 -394 0
-18 -1 394 0
19 1 398 0
19 -1 -398 0
-19 1 -398 0
-19 -1 398 0
21 20 75 0
21 -20 -75 0
-21 20 -75 0
-21 -20 75 0
22 20 196 0
22 -20 -196 0
-22 20 -196 0
-22 -20 196 0
23 20 225 0
23 -20 -225 0
-23 20 -225 0
-23 -20 225 0
24 20 250 0
24 -20 -250 0
-24 20 -250 0
-24 -20 250 0
25 20 265 0
25 -20 -265 0
-25 20 -265 0
-25 -20 265 0
26 20 362 0
26 -20 -362 0
-26 20 -362 0
-26 -20 362 0
27 20 370 0
27 -20 -370 0
-27 20 -370 0
-27 -20 370 0
28 20 374 0
28 -20 -374 0
-28 20 -374 0
-28 -20 374 0
29 20 386 0
29 -20 -386 0
-29 20 -386 0
-29 -20 386 0
30 20 391 0
30 -20 -391 0
-30 20 -391 0
-30 -20 391 0
32 31 46 0
32 -31 -46 0
-32 31 -46 0
-32 -31 46 0
33 31 60 0
33 -31 -60 0
-33 31 -60 0
-33 -31 60 0
34 31 110 0
34 -31 -110 0
-34 31 -110 0
-34 -31 110 0
35 31 128 0
35 -31 -128 0
-35 31 -128 0
-35 -31 128 0
36 31 140 0
36 -31 -140 0
-36 31 -140 0
-36 -31 140 0
37 31 149 0
37 -31 -149 0
-37 31 -149 0
-37 -31 149 0
38 31 238 0
38 -31 -238 0
-38 31 -238 0
-38 -31 238 0
39 31 272 0
39 -31 -272 0
-39 31 -272 0
-39 -31 272 0
40 31 278 0
40 -31 -278 0
-40 31 -278 0
-40 -31 278 0
41 31 308 0
41 -31 -308 0
-41 31 -308 0
-41 -31 308 0
42 31 346 0
42 -31 -346 0
-42 31 -346 0
-42 -31 346 0
43 31 370 0
43 -31 -370 0
-43 31 -370 0
-43 -31 370 0
44 31 394 0
44 -31 -394 0
-44 31 -394 0
-44 -31 394 0
45 31 398 0
45 -31 -398 0
-45 31 -398 0
-45 -31 398 0
47 46 60 0
47 -46 -60 0
-47 46 -60 0
-47 -46 60 0
48 46 110 0
48 -46 -110 0
-48 46 -110 0
-48 -46 110 0
49 46 128 0
49 -46 -128 0
-49 46 -128 0
-49 -46 128 0
50 46 140 0
50 -46 -140 0
-50 46 -140 0
-50 -46 140 0
51 46 204 0
51 -46 -204 0
-51 46 -204 0
-51 -46 204 0
52 46 238 0
52 -46 -238 0
-52 46 -238 0
-52 -46 238 0
53 46 250 0
53 -46 -250 0
-53 46 -250 0
-53 -46 250 0
54 46 339 0
54 -46 -339 0
-54 46 -339 0
-54 -46 339 0
55 46 346 0
55 -46 -346 0
-55 46 -346 0
-55 -46 346 0
56 46 351 0
56 -46 -351 0
-56 46 -351 0
-56 -46 351 0
57 46 370 0
57 -46 -370 0
-57 46 -370 0
-57 -46 370 0
58 46 388 0
58 -46 -388 0
-58 46 -388 0
-58 -46 388 0
59 46 391 0
59 -46 -391 0
-59 46 -391 0
-59 -46 391 0
61 60 75 0
61 -60 -75 0
-61 60 -75 0
-61 -60 75 0
62 60 88 0
62 -60 -88 0
-62 60 -88 0
-62 -60 88 0
63 60 93 0
63 -60 -93 0
-63 60 -93 0
-63 -60 93 0
64 60 128 0
64 -60 -128 0
-64 60 -128 0
-64 -60 128 0
65 60 196 0
65 -60 -196 0
-65 60 -196 0
-65 -60 196 0
66 60 250 0
66 -60 -250 0
-66 60 -250 0
-66 -60 250 0
67 60 265 0
67 -60 -265 0
-67 60 -265 0
-67 -60 265 0
68 60 278 0
68 -60 -278 0
-68 60 -278 0
-68 -60 278 0
69 60 339 0
69 -60 -339 0
-69 60 -339 0
-69 -60 339 0
70 60 346 0
70 -60 -346 0
-70 60 -346 0
-70 -60 346 0
71 60 381 0
71 -60 -381 0
-71 60 -381 0
-71 -60 381 0
72 60 383 0
72 -60 -383 0
-72 60 -383 0
-72 -60 383 0
73 60 386 0
73 -60 -386 0
-73 60 -386 0
-73 -60 386 0
74 60 391 0
74 -60 -391 0
-74 60 -391 0
-74 -60 391 0
76 75 176 0
76 -75 -176 0
-76 75 -176 0
-76 -75 176 0
77 75 182 0
77 -75 -182 0
-77 75 -182 0
-77 -75 182 0
78 75 250 0
78 -75 -250 0
-78 75 -250 0
-78 -75 250 0
79 75 272 0
79 -75 -272 0
-79 75 -272 0
-79 -75 272 0
80 75 286 0
80 -75 -286 0
-80 75 -286 0
-80 -75 286 0
81 75 301 0
81 -75 -301 0
-81 75 -301 0
-81 -75 301 0
82 75 326 0
82 -75 -326 0
-82 75 -326 0
-82 -75 326 0
83 75 339 0
83 -75 -339 0
-83 75 -339 0
-83 -75 339 0
84 75 378 0
84 -75 -378 0
-84 75 -378 0
-84 -75 378 0
85 75 396 0
85 -75 -396 0
-85 75 -396 0
-85 -75 396 0
86 75 398 0
86 -75 -398 0
-86 75 -398 0
-86 -75 398 0
87 75 400 0
87 -75 -400 0
-87 75 -400 0
-87 -75 400 0
89 88 204 0
89 -88 -204 0
-89 88 -204 0
-89 -88 204 0
90 88 301 0
90 -88 -301 0
-90 88 -301 0
-90 -88 301 0
91 88 351 0
91 -88 -351 0
-91 88 -351 0
-91 -88 351 0
92 88 383 0
92 -88 -383 0
-92 88 -383 0
-92 -88 383 0
94 93 128 0
94 -93 -128 0
-94 93 -128 0
-94 -93 128 0
95 93 162 0
95 -93 -162 0
-95 93 -162 0
-95 -93 162 0
96 93 176 0
96 -93 -176 0
-96 93 -176 0
-96 -93 176 0
97 93 204 0
97 -93 -204 0
-97 93 -204 0
-97 -93 204 0
98 93 250 0
98 -93 -250 0
-98 93 -250 0
-98 -93 250 0
99 93 265 0
99 -93 -265 0
-99 93 -265 0
-99 -93 265 0
100 93 272 0
100 -93 -272 0
-100 93 -272 0
-100 -93 272 0
101 93 278 0
101 -93 -278 0
-101 93 -278 0
-101 -93 278 0
102 93 286 0
102 -93 -286 0
-102 93 -286 0
-102 -93 286 0
103 93 313 0
103 -93 -313 0
-103 93 -313 0
-103 -93 313 0
104 93 346 0
104 -93 -346 0
-104 93 -346 0
-104 -93 346 0
105 93 383 0
105 -93 -383 0
-105 93 -383 0
-105 -93 383 0
106 93 388 0
106 -93 -388 0
-106 93 -388 0
-106 -93 388 0
107 93 391 0
107 -93 -391 0
-107 93 -391 0
-107 -93 391 0
108 93 394 0
108 -93 -394 0
-108 93 -394 0
-108 -93 394 0
109 93 398 0
109 -93 -398 0
-109 93 -398 0
-109 -93 398 0
111 110 128 0
111 -110 -128 0
-111 110 -128 0
-111 -110 128 0
112 110 140 0
112 -110 -140 0
-112 110 -140 0
-112 -110 140 0
113 110 149 0
113 -110 -149 0
-113 110 -149 0
-113 -110 149 0
114 110 162 0
114 -110 -162 0
-114 110 -162 0
-114 -110 162 0
115 110 196 0
115 -110 -196 0
-115 110 -196 0
-115 -110 196 0
116 110 204 0
116 -110 -204 0
-116 110 -204 0
-116 -110 204 0
117 110 238 0
117 -110 -238 0
-117 110 -238 0
-117 -110 238 0
118 110 250 0
118 -110 -250 0
-118 110 -250 0
-118 -110 250 0
119 110 272 0
119 -110 -272 0
-119 110 -272 0
-119 -110 272 0
120 110 291 0
120 -110 -291 0
-120 110 -291 0
-120 -110 291 0
121 110 308 0
121 -110 -308 0
-121 110 -308 0
-121 -110 308 0
122 110 326 0
122 -110 -326 0
-122 110 -326 0
-122 -110 326 0
123 110 362 0
123 -110 -362 0
-123 110 -362 0
-123 -110 362 0
124 110 365 0
124 -110 -365 0
-124 110 -365 0
-124 -110 365 0
125 110 391 0
125 -110 -391 0
-125 110 -391 0
-125 -110 391 0
126 110 394 0
126 -110 -394 0
-126 110 -394 0
-126 -110 394 0
127 110 396 0
127 -110 -396 0
-127 110 -396 0
-127 -110 396 0
129 128 140 0
129 -128 -140 0
-129 128 -140 0
-129 -128 140 0
130 128 213 0
130 -128 -213 0
-130 128 -213 0
-130 -128 213 0
131 128 278 0
131 -128 -278 0
-131 128 -278 0
-131 -128 278 0
132 128 313 0
132 -128 -313 0
-132 128 -313 0
-132 -128 313 0
133 128 326 0
133 -128 -326 0
-133 128 -326 0
-133 -128 326 0
134 128 365 0
134 -128 -365 0
-134 128 -365 0
-134 -128 365 0
135 128 370 0
135 -128 -370 0
-135 128 -370 0
-135 -128 370 0
136 128 381 0
136 -128 -381 0
-136 128 -381 0
-136 -128 381 0
137 128 386 0
137 -128 -386 0
-137 128 -386 0
-137 -128 386 0
138 128 394 0
138 -128 -394 0
-138 128 -394 0
-138 -128 394 0
139 128 396 0
139 -128 -396 0
-139 128 -396 0
-139 -128 396 0
141 140 149 0
141 -140 -149 0
-141 140 -149 0
-141 -140 149 0
142 140 204 0
142 -140 -204 0
-142 140 -204 0
-142 -140 204 0
143 140 213 0
143 -140 -213 0
-143 140 -213 0
-143 -140 213 0
144 140 250 0
144 -140 -250 0
-144 140 -250 0
-144 -140 250 0
145 140 272 0
145 -140 -272 0
-145 140 -272 0
-145 -140 272 0
146 140 346 0
146 -140 -346 0
-146 140 -346 0
-146 -140 346 0
147 140 358 0
147 -140 -358 0
-147 140 -358 0
-147 -140 358 0
148 140 374 0
148 -140 -374 0
-148 140 -374 0
-148 -140 374 0
150 149 162 0
150 -149 -162 0
-150 149 -162 0
-150 -149 162 0
151 149 238 0
151 -149 -238 0
-151 149 -238 0
-151 -149 238 0
152 149 265 0
152 -149 -265 0
-152 149 -265 0
-152 -149 265 0
153 149 308 0
153 -149 -308 0
-153 149 -308 0
-153 -149 308 0
154 149 339 0
154 -149 -339 0
-154 149 -339 0
-154 -149 339 0
155 149 346 0
155 -149 -346 0
-155 149 -346 0
-155 -149 346 0
156 149 351 0
156 -149 -351 0
-156 149 -351 0
-156 -149 351 0
157 149 381 0
157 -149 -381 0
-157 149 -381 0
-157 -149 381 0
158 149 383 0
158 -149 -383 0
-158 149 -383 0
-158 -149 383 0
159 149 386 0
159 -149 -386 0
-159 149 -386 0
-159 -149 386 0
160 149 396 0
160 -149 -396 0
-160 149 -396 0
-160 -149 396 0
161 149 398 0
161 -149 -398 0
-161 149 -398 0
-161 -149 398 0
163 162 182 0
163 -162 -182 0
-163 162 -182 0
-163 -162 182 0
164 162 272 0
164 -162 -272 0
-164 162 -272 0
-164 -162 272 0
165 162 301 0
165 -162 -301 0
-165 162 -301 0
-165 -162 301 0
166 162 313 0
166 -162 -313 0
-166 162 -313 0
-166 -162 313 0
167 162 317 0
167 -162 -317 0
-167 162 -317 0
-167 -162 317 0
168 162 326 0
168 -162 -326 0
-168 162 -326 0
-168 -162 326 0
169 162 339 0
169 -162 -339 0
-169 162 -339 0
-169 -162 339 0
170 162 365 0
170 -162 -365 0
-170 162 -365 0
-170 -162 365 0
171 162 383 0
171 -162 -383 0
-171 162 -383 0
-171 -162 383 0
172 162 388 0
172 -162 -388 0
-172 162 -388 0
-172 -162 388 0
173 162 394 0
173 -162 -394 0
-173 162 -394 0
-173 -162 394 0
174 162 396 0
174 -162 -396 0
-174 162 -396 0
-174 -162 396 0
175 162 398 0
175 -162 -398 0
-175 162 -398 0
-175 -162 398 0
177 176 265 0
177 -176 -265 0
-177 176 -265 0
-177 -176 265 0
178 176 301 0
178 -176 -301 0
-178 176 -301 0
-178 -176 301 0
179 176 362 0
179 -176 -362 0
-179 176 -362 0
-179 -176 362 0
180 176 365 0
180 -176 -365 0
-180 176 -365 0
-180 -176 365 0
181 176 370 0
181 -176 -370 0
-181 176 -370 0
-181 -176 370 0
183 182 213 0
183 -182 -213 0
-183 182 -213 0
-183 -182 213 0
184 182 225 0
184 -182 -225 0
-184 182 -225 0
-184 -182 225 0
185 182 238 0
185 -182 -238 0
-185 182 -238 0
-185 -182 238 0
186 182 250 0
186 -182 -250 0
-186 182 -250 0
-186 -182 250 0
187 182 272 0
187 -182 -272 0
-187 182 -272 0
-187 -182 272 0
188 182 291 0
188 -182 -291 0
-188 182 -291 0
-188 -182 291 0
189 182 301 0
189 -182 -301 0
-189 182 -301 0
-189 -182 301 0
190 182 326 0
190 -182 -326 0
-190 182 -326 0
-190 -182 326 0
191 182 339 0
191 -182 -339 0
-191 182 -339 0
-191 -182 339 0
192 182 346 0
192 -182 -346 0
-192 182 -346 0
-192 -182 346 0
193 182 374 0
193 -182 -374 0
-193 182 -374 0
-193 -182 374 0
194 182 396 0
194 -182 -396 0
-194 182 -396 0
-194 -182 396 0
195 182 400 0
195 -182 -400 0
-195 182 -400 0
-195 -182 400 0
197 196 272 0
197 -196 -272 0
-197 196 -272 0
-197 -196 272 0
198 196 286 0
198 -196 -286 0
-198 196 -286 0
-198 -196 286 0
199 196 339 0
199 -196 -339 0
-199 196 -339 0
-199 -196 339 0
200 196 358 0
200 -196 -358 0
-200 196 -358 0
-200 -196 358 0
201 196 391 0
201 -196 -391 0
-201 196 -391 0
-201 -196 391 0
202 196 396 0
202 -196 -396 0
-202 196 -396 0
-202 -196 396 0
203 196 398 0
203 -196 -398 0
-203 196 -398 0
-203 -196 398 0
205 204 213 0
205 -204 -213 0
-205 204 -213 0
-205 -204 213 0
206 204 258 0
206 -204 -258 0
-206 204 -258 0
-206 -204 258 0
207 204 265 0
207 -204 -265 0
-207 204 -265 0
-207 -204 265 0
208 204 301 0
208 -204 -301 0
-208 204 -301 0
-208 -204 301 0
209 204 326 0
209 -204 -326 0
-209 204 -326 0
-209 -204 326 0
210 204 365 0
210 -204 -365 0
-210 204 -365 0
-210 -204 365 0
211 204 381 0
211 -204 -381 0
-211 204 -381 0
-211 -204 381 0
212 204 396 0
212 -204 -396 0
-212 204 -396 0
-212 -204 396 0
214 213 258 0
214 -213 -258 0
-214 213 -258 0
-214 -213 258 0
215 213 265 0
215 -213 -265 0
-215 213 -265 0
-215 -213 265 0
216 213 291 0
216 -213 -291 0
-216 213 -291 0
-216 -213 291 0
217 213 351 0
217 -213 -351 0
-217 213 -351 0
-217 -213 351 0
218 213 365 0
218 -213 -365 0
-218 213 -365 0
-218 -213 365 0
219 213 370 0
219 -213 -370 0
-219 213 -370 0
-219 -213 370 0
220 213 374 0
220 -213 -374 0
-220 213 -374 0
-220 -213 374 0
221 213 383 0
221 -213 -383 0
-221 213 -383 0
-221 -213 383 0
222 213 386 0
222 -213 -386 0
-222 213 -386 0
-222 -213 386 0
223 213 396 0
223 -213 -396 0
-223 213 -396 0
-223 -213 396 0
224 213 400 0
224 -213 -400 0
-224 213 -400 0
-224 -213 400 0
226 225 250 0
226 -225 -250 0
-226 225 -250 0
-226 -225 250 0
227 225 258 0
227 -225 -258 0
-227 225 -258 0
-227 -225 258 0
228 225 278 0
228 -225 -278 0
-228 225 -278 0
-228 -225 278 0
229 225 291 0
229 -225 -291 0
-229 225 -291 0
-229 -225 291 0
230 225 308 0
230 -225 -308 0
-230 225 -308 0
-230 -225 308 0
231 225 339 0
231 -225 -339 0
-231 225 -339 0
-231 -225 339 0
232 225 351 0
232 -225 -351 0
-232 225 -351 0
-232 -225 351 0
233 225 362 0
233 -225 -362 0
-233 225 -362 0
-233 -225 362 0
234 225 365 0
234 -225 -365 0
-234 225 -365 0
-234 -225 365 0
235 225 381 0
235 -225 -381 0
-235 225 -381 0
-235 -225 381 0
236 225 391 0
236 -225 -391 0
-236 225 -391 0
-236 -225 391 0
237 225 398 0
237 -225 -398 0
-237 225 -398 0
-237 -225 398 0
239 238 258 0
239 -238 -258 0
-239 238 -258 0
-239 -238 258 0
240 238 291 0
240 -238 -291 0
-240 238 -291 0
-240 -238 291 0
241 238 308 0
241 -238 -308 0
-241 238 -308 0
-241 -238 308 0
242 238 317 0
242 -238 -317 0
-242 238 -317 0
-242 -238 317 0
243 238 326 0
243 -238 -326 0
-243 238 -326 0
-243 -238 326 0
244 238 339 0
244 -238 -339 0
-244 238 -339 0
-244 -238 339 0
245 238 362 0
245 -238 -362 0
-245 238 -362 0
-245 -238 362 0
246 238 386 0
246 -238 -386 0
-246 238 -386 0
-246 -238 386 0
247 238 388 0
247 -238 -388 0
-247 238 -388 0
-247 -238 388 0
248 238 394 0
248 -238 -394 0
-248 238 -394 0
-248 -238 394 0
249 238 396 0
249 -238 -396 0
-249 238 -396 0
-249 -238 396 0
251 250 258 0
251 -250 -258 0
-251 250 -258 0
-251 -250 258 0
252 250 313 0
252 -250 -313 0
-252 250 -313 0
-252 -250 313 0
253 250 317 0
253 -250 -317 0
-253 250 -317 0
-253 -250 317 0
254 250 386 0
254 -250 -386 0
-254 250 -386 0
-254 -250 386 0
255 250 391 0
255 -250 -391 0
-255 250 -391 0
-255 -250 391 0
256 250 394 0
256 -250 -394 0
-256 250 -394 0
-256 -250 394 0
257 250 396 0
257 -250 -396 0
-257 250 -396 0
-257 -250 396 0
259 258 265 0
259 -258 -265 0
-259 258 -265 0
-259 -258 265 0
260 258 291 0
260 -258 -291 0
-260 258 -291 0
-260 -258 291 0
261 258 358 0
261 -258 -358 0
-261 258 -358 0
-261 -258 358 0
262 258 365 0
262 -258 -365 0
-262 258 -365 0
-262 -258 365 0
263 258 378 0
263 -258 -378 0
-263 258 -378 0
-263 -258 378 0
264 258 386 0
264 -258 -386 0
-264 258 -386 0
-264 -258 386 0
266 265 317 0
266 -265 -317 0
-266 265 -317 0
-266 -265 317 0
267 265 326 0
267 -265 -326 0
-267 265 -326 0
-267 -265 326 0
268 265 339 0
268 -265 -339 0
-268 265 -339 0
-268 -265 339 0
269 265 346 0
269 -265 -346 0
-269 265 -346 0
-269 -265 346 0
270 265 351 0
270 -265 -351 0
-270 265 -351 0
-270 -265 351 0
271 265 358 0
271 -265 -358 0
-271 265 -358 0
-271 -265 358 0
273 272 326 0
273 -272 -326 0
-273 272 -326 0
-273 -272 326 0
274 272 358 0
274 -272 -358 0
-274 272 -358 0
-274 -272 358 0
275 272 388 0
275 -272 -388 0
-275 272 -388 0
-275 -272 388 0
276 272 391 0
276 -272 -391 0
-276 272 -391 0
-276 -272 391 0
277 272 398 0
277 -272 -398 0
-277 272 -398 0
-277 -272 398 0
279 278 313 0
279 -278 -313 0
-279 278 -313 0
-279 -278 313 0
280 278 339 0
280 -278 -339 0
-280 278 -339 0
-280 -278 339 0
281 278 346 0
281 -278 -346 0
-281 278 -346 0
-281 -278 346 0
282 278 351 0
282 -278 -351 0
-282 278 -351 0
-282 -278 351 0
283 278 370 0
283 -278 -370 0
-283 278 -370 0
-283 -278 370 0
284 278 374 0
284 -278 -374 0
-284 278 -374 0
-284 -278 374 0
285 278 398 0
285 -278 -398 0
-285 278 -398 0
-285 -278 398 0
287 286 326 0
287 -286 -326 0
-287 286 -326 0
-287 -286 326 0
288 286 351 0
288 -286 -351 0
-288 286 -351 0
-288 -286 351 0
289 286 396 0
289 -286 -396 0
-289 286 -396 0
-289 -286 396 0
290 286 398 0
290 -286 -398 0
-290 286 -398 0
-290 -286 398 0
292 291 301 0
292 -291 -301 0
-292 291 -301 0
-292 -291 301 0
293 291 313 0
293 -291 -313 0
-293 291 -313 0
-293 -291 313 0
294 291 326 0
294 -291 -326 0
-294 291 -326 0
-294 -291 326 0
295 291 339 0
295 -291 -339 0
-295 291 -339 0
-295 -291 339 0
296 291 362 0
296 -291 -362 0
-296 291 -362 0
-296 -291 362 0
297 291 370 0
297 -291 -370 0
-297 291 -370 0
-297 -291 370 0
298 291 378 0
298 -291 -378 0
-298 291 -378 0
-298 -291 378 0
299 291 386 0
299 -291 -386 0
-299 291 -386 0
-299 -291 386 0
300 291 391 0
300 -291 -391 0
-300 291 -391 0
-300 -291 391 0
302 301 326 0
302 -301 -326 0
-302 301 -326 0
-302 -301 326 0
303 301 358 0
303 -301 -358 0
-303 301 -358 0
-303 -301 358 0
304 301 370 0
304 -301 -370 0
-304 301 -370 0
-304 -301 370 0
305 301 383 0
305 -301 -383 0
-305 301 -383 0
-305 -301 383 0
306 301 391 0
306 -301 -391 0
-306 301 -391 0
-306 -301 391 0
307 301 400 0
307 -301 -400 0
-307 301 -400 0
-307 -301 400 0
309 308 313 0
309 -308 -313 0
-309 308 -313 0
-309 -308 313 0
310 308 326 0
310 -308 -326 0
-310 308 -326 0
-310 -308 326 0
311 308 358 0
311 -308 -358 0
-311 308 -358 0
-311 -308 358 0
312 308 388 0
312 -308 -388 0
-312 308 -388 0
-312 -308 388 0
314 313 362 0
314 -313 -362 0
-314 313 -362 0
-314 -313 362 0
315 313 378 0
315 -313 -378 0
-315 313 -378 0
-315 -313 378 0
316 313 381 0
316 -313 -381 0
-316 313 -381 0
-316 -313 381 0
318 317 326 0
318 -317 -326 0
-318 317 -326 0
-318 -317 326 0
319 317 346 0
319 -317 -346 0
-319 317 -346 0
-319 -317 346 0
320 317 351 0
320 -317 -351 0
-320 317 -351 0
-320 -317 351 0
321 317 358 0
321 -317 -358 0
-321 317 -358 0
-321 -317 358 0
322 317 362 0
322 -317 -362 0
-322 317 -362 0
-322 -317 362 0
323 317 365 0
323 -317 -365 0
-323 317 -365 0
-323 -317 365 0
324 317 383 0
324 -317 -383 0
-324 317 -383 0
-324 -317 383 0
325 317 398 0
325 -317 -398 0
-325 317 -398 0
-325 -317 398 0
327 326 339 0
327 -326 -339 0
-327 326 -339 0
-327 -326 339 0
328 326 346 0
328 -326 -346 0
-328 326 -346 0
-328 -326 346 0
329 326 362 0
329 -326 -362 0
-329 326 -362 0
-329 -326 362 0
330 326 365 0
330 -326 -365 0
-330 326 -365 0
-330 -326 365 0
331 326 378 0
331 -326 -378 0
-331 326 -378 0
-331 -326 378 0
332 326 381 0
332 -326 -381 0
-332 326 -381 0
-332 -326 381 0
333 326 383 0
333 -326 -383 0
-333 326 -383 0
-333 -326 383 0
334 326 386 0
334 -326 -386 0
-334 326 -386 0
-334 -326 386 0
335 326 391 0
335 -326 -391 0
-335 326 -391 0
-335 -326 391 0
336 326 394 0
336 -326 -394 0
-336 326 -394 0
-336 -326 394 0
337 326 396 0
337 -326 -396 0
-337 326 -396 0
-337 -326 396 0
338 326 398 0
338 -326 -398 0
-338 326 -398 0
-338 -326 398 0
340 339 351 0
340 -339 -351 0
-340 339 -351 0
-340 -339 351 0
341 339 358 0
341 -339 -358 0
-341 339 -358 0
-341 -339 358 0
342 339 370 0
342 -339 -370 0
-342 339 -370 0
-342 -339 370 0
343 339 381 0
343 -339 -381 0
-343 339 -381 0
-343 -339 381 0
344 339 386 0
344 -339 -386 0
-344 339 -386 0
-344 -339 386 0
345 339 388 0
345 -339 -388 0
-345 339 -388 0
-345 -339 388 0
347 346 358 0
347 -346 -358 0
-347 346 -358 0
-347 -346 358 0
348 346 383 0
348 -346 -383 0
-348 346 -383 0
-348 -346 383 0
349 346 388 0
349 -346 -388 0
-349 346 -388 0
-349 -346 388 0
350 346 391 0
350 -346 -391 0
-350 346 -391 0
-350 -346 391 0
352 351 370 0
352 -351 -370 0
-352 351 -370 0
-352 -351 370 0
353 351 374 0
353 -351 -374 0
-353 351 -374 0
-353 -351 374 0
354 351 383 0
354 -351 -383 0
-354 351 -383 0
-354 -351 383 0
355 351 386 0
355 -351 -386 0
-355 351 -386 0
-355 -351 386 0
356 351 391 0
356 -351 -391 0
-356 351 -391 0
-356 -351 391 0
357 351 400 0
357 -351 -400 0
-357 351 -400 0
-357 -351 400 0
359 358 365 0
359 -358 -365 0
-359 358 -365 0
-359 -358 365 0
360 358 378 0
360 -358 -378 0
-360 358 -378 0
-360 -358 378 0
361 358 391 0
361 -358 -391 0
-361 358 -391 0
-361 -358 391 0
363 362 378 0
363 -362 -378 0
-363 362 -378 0
-363 -362 378 0
364 362 386 0
364 -362 -386 0
-364 362 -386 0
-364 -362 386 0
366 365 386 0
366 -365 -386 0
-366 365 -386 0
-366 -365 386 0
367 365 388 0
367 -365 -388 0
-367 365 -388 0
-367 -365 388 0
368 365 391 0
368 -365 -391 0
-368 365 -391 0
-368 -365 391 0
369 365 394 0
369 -365 -394 0
-369 365 -394 0
-369 -365 394 0
371 370 386 0
371 -370 -386 0
-371 370 -386 0
-371 -370 386 0
372 370 391 0
372 -370 -391 0
-372 370 -391 0
-372 -370 391 0
373 370 394 0
373 -370 -394 0
-373 370 -394 0
-373 -370 394 0
375 374 386 0
375 -374 -386 0
-375 374 -386 0
-375 -374 386 0
376 374 394 0
376 -374 -394 0
-376 374 -394 0
-376 -374 394 0
377 374 398 0
377 -374 -398 0
-377 374 -398 0
-377 -374 398 0
379 378 381 0
379 -378 -381 0
-379 378 -381 0
-379 -378 381 0
380 378 388 0
380 -378 -388 0
-380 378 -388 0
-380 -378 388 0
382 381 388 0
382 -381 -388 0
-382 381 -388 0
-382 -381 388 0
384 383 394 0
384 -383 -394 0
-384 383 -394 0
-384 -383 394 0
385 383 398 0
385 -383 -398 0
-385 383 -398 0
-385 -383 398 0
387 386 388 0
387 -386 -388 0
-387 386 -388 0
-387 -386 388 0
389 388 391 0
389 -388 -391 0
-389 388 -391 0
-389 -388 391 0
390 388 396 0
390 -388 -396 0
-390 388 -396 0
-390 -388 396 0
392 391 396 0
392 -391 -396 0
-392 391 -396 0
-392 -391 396 0
393 391 398 0
393 -391 -398 0
-393 391 -398 0
-393 -391 398 0
395 394 398 0
395 -394 -398 0
-395 394 -398 0
-395 -394 398 0
397 396 398 0
397 -396 -398 0
-397 396 -398 0
-397 -396 398 0
399 398 400 0
399 -398 -400 0
-399 398 -400 0
-399 -398 400 0
